&CONTROL
  calculation = 'relax',
  outdir = './tmp/',
  prefix = 'rank002',
  pseudo_dir = './pseudo/',
  tprnfor = .TRUE.,
  tstress = .TRUE.,
/
&SYSTEM
  degauss = 0.01,
  ecutrho = 400.0,
  ecutwfc = 50.0,
  occupations = 'smearing',
  smearing = 'gaussian',
  ibrav = 0,
  nat = 7,
  ntyp = 4,
/
&ELECTRONS
  conv_thr = 1d-06,
  mixing_beta = 0.7,
/
&IONS
/
&CELL
/
ATOMIC_SPECIES
  Fe  55.8450 Fe.UPF
  Li  6.9410 Li.UPF
  O  15.9994 O.UPF
  P  30.9738 P.UPF
ATOMIC_POSITIONS crystal
  Li 0.151800 0.334000 0.287400
  Fe 0.155900 0.335900 0.784500
  P 0.091300 0.842100 0.536000
  O 0.055000 0.700500 0.717200
  O 0.116800 0.145900 0.531000
  O 0.154400 0.712300 0.367600
  O 0.158400 0.158500 0.991800
K_POINTS automatic
  4 4 4 0 0 0
CELL_PARAMETERS angstrom
  10.069600 0.000000 0.000000
  0.000000 5.017200 0.000000
  0.000000 0.000000 6.723500