&CONTROL
  calculation = 'relax',
  outdir = './tmp/',
  prefix = 'rank014',
  pseudo_dir = './pseudo/',
  tprnfor = .TRUE.,
  tstress = .TRUE.,
/
&SYSTEM
  degauss = 0.01,
  ecutrho = 400.0,
  ecutwfc = 50.0,
  occupations = 'smearing',
  smearing = 'gaussian',
  ibrav = 0,
  nat = 7,
  ntyp = 4,
/
&ELECTRONS
  conv_thr = 1d-06,
  mixing_beta = 0.7,
/
&IONS
/
&CELL
/
ATOMIC_SPECIES
  Fe  55.8450 Fe.UPF
  Li  6.9410 Li.UPF
  O  15.9994 O.UPF
  P  30.9738 P.UPF
ATOMIC_POSITIONS crystal
  Li 0.153900 0.665800 0.259900
  Fe 0.159800 0.663200 0.787400
  P 0.094200 0.172200 0.530700
  O 0.051800 0.749200 0.014400
  O 0.110500 0.851400 0.532300
  O 0.154200 0.299000 0.337400
  O 0.160800 0.292500 0.713800
K_POINTS automatic
  4 4 4 0 0 0
CELL_PARAMETERS angstrom
  10.005700 0.000000 0.000000
  0.000000 5.031800 0.000000
  0.000000 0.000000 6.607200