&CONTROL
  calculation = 'relax',
  outdir = './tmp/',
  prefix = 'rank020',
  pseudo_dir = './pseudo/',
  tprnfor = .TRUE.,
  tstress = .TRUE.,
/
&SYSTEM
  degauss = 0.01,
  ecutrho = 400.0,
  ecutwfc = 50.0,
  occupations = 'smearing',
  smearing = 'gaussian',
  ibrav = 0,
  nat = 7,
  ntyp = 4,
/
&ELECTRONS
  conv_thr = 1d-06,
  mixing_beta = 0.7,
/
&IONS
/
&CELL
/
ATOMIC_SPECIES
  Fe  55.8450 Fe.UPF
  Li  6.9410 Li.UPF
  O  15.9994 O.UPF
  P  30.9738 P.UPF
ATOMIC_POSITIONS crystal
  Li 0.154500 0.685400 0.287500
  Fe 0.153100 0.681700 0.787500
  P 0.095200 0.185800 0.536300
  O 0.057200 0.752600 0.007900
  O 0.112400 0.840000 0.554400
  O 0.154100 0.291600 0.332800
  O 0.165700 0.294500 0.717000
K_POINTS automatic
  4 4 4 0 0 0
CELL_PARAMETERS angstrom
  9.538200 0.000000 0.000000
  0.000000 4.827100 0.000000
  0.000000 0.000000 6.745600