&CONTROL
  calculation = 'relax',
  outdir = './tmp/',
  prefix = 'rank003',
  pseudo_dir = './pseudo/',
  tprnfor = .TRUE.,
  tstress = .TRUE.,
/
&SYSTEM
  degauss = 0.01,
  ecutrho = 400.0,
  ecutwfc = 50.0,
  occupations = 'smearing',
  smearing = 'gaussian',
  ibrav = 0,
  nat = 7,
  ntyp = 4,
/
&ELECTRONS
  conv_thr = 1d-06,
  mixing_beta = 0.7,
/
&IONS
/
&CELL
/
ATOMIC_SPECIES
  Fe  55.8450 Fe.UPF
  Li  6.9410 Li.UPF
  O  15.9994 O.UPF
  P  30.9738 P.UPF
ATOMIC_POSITIONS crystal
  Li 0.152100 0.344400 0.294600
  Fe 0.159700 0.342700 0.789500
  P 0.089100 0.849000 0.532400
  O 0.061800 0.700700 0.724500
  O 0.109900 0.151200 0.526300
  O 0.133000 0.727800 0.344600
  O 0.151200 0.137600 0.986600
K_POINTS automatic
  4 4 4 0 0 0
CELL_PARAMETERS angstrom
  10.055500 0.000000 0.000000
  0.000000 5.000400 0.000000
  0.000000 0.000000 6.753700