&CONTROL
  calculation = 'relax',
  outdir = './tmp/',
  prefix = 'rank019',
  pseudo_dir = './pseudo/',
  tprnfor = .TRUE.,
  tstress = .TRUE.,
/
&SYSTEM
  degauss = 0.01,
  ecutrho = 400.0,
  ecutwfc = 50.0,
  occupations = 'smearing',
  smearing = 'gaussian',
  ibrav = 0,
  nat = 7,
  ntyp = 4,
/
&ELECTRONS
  conv_thr = 1d-06,
  mixing_beta = 0.7,
/
&IONS
/
&CELL
/
ATOMIC_SPECIES
  Fe  55.8450 Fe.UPF
  Li  6.9410 Li.UPF
  O  15.9994 O.UPF
  P  30.9738 P.UPF
ATOMIC_POSITIONS crystal
  Li 0.157800 0.992200 0.754300
  Fe 0.159300 0.503100 0.752500
  P 0.090700 0.261100 0.255800
  O 0.068000 0.735700 0.744500
  O 0.118900 0.058700 0.166900
  O 0.159700 0.280900 0.561700
  O 0.159800 0.443600 0.136900
K_POINTS automatic
  4 4 4 0 0 0
CELL_PARAMETERS angstrom
  9.502100 0.000000 0.000000
  0.000000 6.836000 0.000000
  0.000000 0.000000 4.984300