&CONTROL
  calculation = 'relax',
  outdir = './tmp/',
  prefix = 'rank009',
  pseudo_dir = './pseudo/',
  tprnfor = .TRUE.,
  tstress = .TRUE.,
/
&SYSTEM
  degauss = 0.01,
  ecutrho = 400.0,
  ecutwfc = 50.0,
  occupations = 'smearing',
  smearing = 'gaussian',
  ibrav = 0,
  nat = 7,
  ntyp = 4,
/
&ELECTRONS
  conv_thr = 1d-06,
  mixing_beta = 0.7,
/
&IONS
/
&CELL
/
ATOMIC_SPECIES
  Fe  55.8450 Fe.UPF
  Li  6.9410 Li.UPF
  O  15.9994 O.UPF
  P  30.9738 P.UPF
ATOMIC_POSITIONS crystal
  Li 0.156700 0.195200 0.282600
  Fe 0.153500 0.212400 0.808100
  P 0.094400 0.693100 0.537700
  O 0.072000 0.207300 0.016500
  O 0.116300 0.382700 0.571000
  O 0.147700 0.784200 0.346700
  O 0.157300 0.803300 0.715900
K_POINTS automatic
  4 4 4 0 0 0
CELL_PARAMETERS angstrom
  9.923500 0.000000 0.000000
  0.000000 4.995800 0.000000
  0.000000 0.000000 7.120500