&CONTROL
  calculation = 'relax',
  outdir = './tmp/',
  prefix = 'rank008',
  pseudo_dir = './pseudo/',
  tprnfor = .TRUE.,
  tstress = .TRUE.,
/
&SYSTEM
  degauss = 0.01,
  ecutrho = 400.0,
  ecutwfc = 50.0,
  occupations = 'smearing',
  smearing = 'gaussian',
  ibrav = 0,
  nat = 7,
  ntyp = 4,
/
&ELECTRONS
  conv_thr = 1d-06,
  mixing_beta = 0.7,
/
&IONS
/
&CELL
/
ATOMIC_SPECIES
  Fe  55.8450 Fe.UPF
  Li  6.9410 Li.UPF
  O  15.9994 O.UPF
  P  30.9738 P.UPF
ATOMIC_POSITIONS crystal
  Li 0.155100 0.697700 0.284900
  Fe 0.159900 0.691200 0.789100
  P 0.093700 0.188400 0.537800
  O 0.053300 0.751400 0.017100
  O 0.107400 0.859000 0.546000
  O 0.130300 0.311400 0.736600
  O 0.153200 0.299700 0.344900
K_POINTS automatic
  4 4 4 0 0 0
CELL_PARAMETERS angstrom
  9.890100 0.000000 0.000000
  0.000000 4.924400 0.000000
  0.000000 0.000000 6.648200