&CONTROL
  calculation = 'relax',
  outdir = './tmp/',
  prefix = 'rank013',
  pseudo_dir = './pseudo/',
  tprnfor = .TRUE.,
  tstress = .TRUE.,
/
&SYSTEM
  degauss = 0.01,
  ecutrho = 400.0,
  ecutwfc = 50.0,
  occupations = 'smearing',
  smearing = 'gaussian',
  ibrav = 0,
  nat = 7,
  ntyp = 4,
/
&ELECTRONS
  conv_thr = 1d-06,
  mixing_beta = 0.7,
/
&IONS
/
&CELL
/
ATOMIC_SPECIES
  Fe  55.8450 Fe.UPF
  Li  6.9410 Li.UPF
  O  15.9994 O.UPF
  P  30.9738 P.UPF
ATOMIC_POSITIONS crystal
  Li 0.087800 0.255600 0.753000
  Fe 0.153400 0.995800 0.253200
  P 0.097000 0.741900 0.765200
  O 0.056900 0.231900 0.167000
  O 0.101400 0.758500 0.066300
  O 0.156800 0.548100 0.628500
  O 0.158300 0.945700 0.653500
K_POINTS automatic
  4 4 4 0 0 0
CELL_PARAMETERS angstrom
  10.710500 0.000000 0.000000
  0.000000 6.334700 0.000000
  0.000000 0.000000 4.899100