&CONTROL
  calculation = 'relax',
  outdir = './tmp/',
  prefix = 'rank012',
  pseudo_dir = './pseudo/',
  tprnfor = .TRUE.,
  tstress = .TRUE.,
/
&SYSTEM
  degauss = 0.01,
  ecutrho = 400.0,
  ecutwfc = 50.0,
  occupations = 'smearing',
  smearing = 'gaussian',
  ibrav = 0,
  nat = 7,
  ntyp = 4,
/
&ELECTRONS
  conv_thr = 1d-06,
  mixing_beta = 0.7,
/
&IONS
/
&CELL
/
ATOMIC_SPECIES
  Fe  55.8450 Fe.UPF
  Li  6.9410 Li.UPF
  O  15.9994 O.UPF
  P  30.9738 P.UPF
ATOMIC_POSITIONS crystal
  Li 0.151000 0.236400 0.758300
  Fe 0.166200 0.498400 0.258400
  P 0.094100 0.744800 0.758300
  O 0.073300 0.258600 0.156400
  O 0.095000 0.741200 0.075600
  O 0.154600 0.963700 0.659300
  O 0.155000 0.532200 0.657800
K_POINTS automatic
  4 4 4 0 0 0
CELL_PARAMETERS angstrom
  9.050900 0.000000 0.000000
  0.000000 6.267400 0.000000
  0.000000 0.000000 4.881700