&CONTROL
  calculation = 'relax',
  outdir = './tmp/',
  prefix = 'rank005',
  pseudo_dir = './pseudo/',
  tprnfor = .TRUE.,
  tstress = .TRUE.,
/
&SYSTEM
  degauss = 0.01,
  ecutrho = 400.0,
  ecutwfc = 50.0,
  occupations = 'smearing',
  smearing = 'gaussian',
  ibrav = 0,
  nat = 7,
  ntyp = 4,
/
&ELECTRONS
  conv_thr = 1d-06,
  mixing_beta = 0.7,
/
&IONS
/
&CELL
/
ATOMIC_SPECIES
  Fe  55.8450 Fe.UPF
  Li  6.9410 Li.UPF
  O  15.9994 O.UPF
  P  30.9738 P.UPF
ATOMIC_POSITIONS crystal
  Li 0.157200 0.689100 0.286100
  Fe 0.156500 0.682300 0.784700
  P 0.095500 0.177600 0.535000
  O 0.057300 0.262600 0.749500
  O 0.112000 0.335100 0.344500
  O 0.158200 0.869300 0.536000
  O 0.158400 0.818300 0.004700
K_POINTS automatic
  4 4 4 0 0 0
CELL_PARAMETERS angstrom
  10.082000 0.000000 0.000000
  0.000000 4.881000 0.000000
  0.000000 0.000000 6.760600