&CONTROL
  calculation = 'relax',
  outdir = './tmp/',
  prefix = 'rank018',
  pseudo_dir = './pseudo/',
  tprnfor = .TRUE.,
  tstress = .TRUE.,
/
&SYSTEM
  degauss = 0.01,
  ecutrho = 400.0,
  ecutwfc = 50.0,
  occupations = 'smearing',
  smearing = 'gaussian',
  ibrav = 0,
  nat = 7,
  ntyp = 4,
/
&ELECTRONS
  conv_thr = 1d-06,
  mixing_beta = 0.7,
/
&IONS
/
&CELL
/
ATOMIC_SPECIES
  Fe  55.8450 Fe.UPF
  Li  6.9410 Li.UPF
  O  15.9994 O.UPF
  P  30.9738 P.UPF
ATOMIC_POSITIONS crystal
  Li 0.156700 0.683200 0.287500
  Fe 0.159700 0.683600 0.787300
  P 0.090500 0.178300 0.535800
  O 0.057600 0.750400 0.033400
  O 0.104500 0.857800 0.535300
  O 0.158500 0.310400 0.345700
  O 0.166300 0.293000 0.724100
K_POINTS automatic
  4 4 4 0 0 0
CELL_PARAMETERS angstrom
  9.568000 0.000000 0.000000
  0.000000 4.803900 0.000000
  0.000000 0.000000 6.630000