&CONTROL
  calculation = 'relax',
  outdir = './tmp/',
  prefix = 'rank015',
  pseudo_dir = './pseudo/',
  tprnfor = .TRUE.,
  tstress = .TRUE.,
/
&SYSTEM
  degauss = 0.01,
  ecutrho = 400.0,
  ecutwfc = 50.0,
  occupations = 'smearing',
  smearing = 'gaussian',
  ibrav = 0,
  nat = 7,
  ntyp = 4,
/
&ELECTRONS
  conv_thr = 1d-06,
  mixing_beta = 0.7,
/
&IONS
/
&CELL
/
ATOMIC_SPECIES
  Fe  55.8450 Fe.UPF
  Li  6.9410 Li.UPF
  O  15.9994 O.UPF
  P  30.9738 P.UPF
ATOMIC_POSITIONS crystal
  Li 0.155400 0.682500 0.288100
  Fe 0.156500 0.681200 0.787900
  P 0.094000 0.186700 0.536000
  O 0.058200 0.758000 0.009500
  O 0.112200 0.868800 0.550400
  O 0.163200 0.309800 0.726600
  O 0.164200 0.294900 0.349300
K_POINTS automatic
  4 4 4 0 0 0
CELL_PARAMETERS angstrom
  10.024200 0.000000 0.000000
  0.000000 4.897500 0.000000
  0.000000 0.000000 6.447500