&CONTROL
  calculation = 'relax',
  outdir = './tmp/',
  prefix = 'rank011',
  pseudo_dir = './pseudo/',
  tprnfor = .TRUE.,
  tstress = .TRUE.,
/
&SYSTEM
  degauss = 0.01,
  ecutrho = 400.0,
  ecutwfc = 50.0,
  occupations = 'smearing',
  smearing = 'gaussian',
  ibrav = 0,
  nat = 7,
  ntyp = 4,
/
&ELECTRONS
  conv_thr = 1d-06,
  mixing_beta = 0.7,
/
&IONS
/
&CELL
/
ATOMIC_SPECIES
  Fe  55.8450 Fe.UPF
  Li  6.9410 Li.UPF
  O  15.9994 O.UPF
  P  30.9738 P.UPF
ATOMIC_POSITIONS crystal
  Li 0.158600 0.689500 0.287400
  Fe 0.152600 0.685100 0.788000
  P 0.090600 0.181200 0.537800
  O 0.056400 0.749900 0.027800
  O 0.110500 0.861100 0.548800
  O 0.159500 0.294800 0.342200
  O 0.163000 0.287200 0.734900
K_POINTS automatic
  4 4 4 0 0 0
CELL_PARAMETERS angstrom
  9.237800 0.000000 0.000000
  0.000000 4.779100 0.000000
  0.000000 0.000000 6.620300