&CONTROL
  calculation = 'relax',
  outdir = './tmp/',
  prefix = 'rank001',
  pseudo_dir = './pseudo/',
  tprnfor = .TRUE.,
  tstress = .TRUE.,
/
&SYSTEM
  degauss = 0.01,
  ecutrho = 400.0,
  ecutwfc = 50.0,
  occupations = 'smearing',
  smearing = 'gaussian',
  ibrav = 0,
  nat = 6,
  ntyp = 4,
/
&ELECTRONS
  conv_thr = 1d-06,
  mixing_beta = 0.7,
/
&IONS
/
&CELL
/
ATOMIC_SPECIES
  Fe  55.8450 Fe.UPF
  Li  6.9410 Li.UPF
  O  15.9994 O.UPF
  P  30.9738 P.UPF
ATOMIC_POSITIONS crystal
  Li 0.000000 0.000000 0.500000
  Fe 0.221800 0.750000 0.984600
  P 0.098000 0.250000 0.912800
  O 0.162300 0.046000 0.782800
  O 0.045100 0.750000 0.214300
  O 0.103900 0.250000 0.237500
K_POINTS automatic
  4 4 4 0 0 0
CELL_PARAMETERS angstrom
  0.156500 0.000000 0.000000
  0.000000 6.013000 0.000000
  0.000000 0.000000 4.788300