&CONTROL
  calculation = 'relax',
  outdir = './tmp/',
  prefix = 'rank017',
  pseudo_dir = './pseudo/',
  tprnfor = .TRUE.,
  tstress = .TRUE.,
/
&SYSTEM
  degauss = 0.01,
  ecutrho = 400.0,
  ecutwfc = 50.0,
  occupations = 'smearing',
  smearing = 'gaussian',
  ibrav = 0,
  nat = 7,
  ntyp = 4,
/
&ELECTRONS
  conv_thr = 1d-06,
  mixing_beta = 0.7,
/
&IONS
/
&CELL
/
ATOMIC_SPECIES
  Fe  55.8450 Fe.UPF
  Li  6.9410 Li.UPF
  O  15.9994 O.UPF
  P  30.9738 P.UPF
ATOMIC_POSITIONS crystal
  Li 0.156700 0.677100 0.287200
  Fe 0.146900 0.670200 0.787700
  P 0.093500 0.176800 0.535500
  O 0.054400 0.752100 0.029000
  O 0.115800 0.858700 0.533600
  O 0.154500 0.309300 0.334300
  O 0.174100 0.273600 0.724300
K_POINTS automatic
  4 4 4 0 0 0
CELL_PARAMETERS angstrom
  9.136300 0.000000 0.000000
  0.000000 4.759600 0.000000
  0.000000 0.000000 6.605500