DPO-CrystaLLM rank=5 ehull=-0.4198
1.0
  10.0820000000000007    0.0000000000000000    0.0000000000000006
   0.0000000000000008    4.8810000000000002    0.0000000000000003
   0.0000000000000000    0.0000000000000000    6.7606000000000002
Li Fe P O
1 1 1 4
direct
   0.1572000000000000    0.6891000000000000    0.2861000000000000 Li
   0.1565000000000000    0.6823000000000000    0.7847000000000000 Fe
   0.0955000000000000    0.1776000000000000    0.5350000000000000 P
   0.0573000000000000    0.2626000000000000    0.7495000000000001 O
   0.1120000000000000    0.3351000000000000    0.3445000000000000 O
   0.1582000000000000    0.8693000000000000    0.5360000000000000 O
   0.1584000000000000    0.8183000000000000    0.0047000000000000 O
