DPO-CrystaLLM rank=20 ehull=-0.3943
1.0
   9.5381999999999998    0.0000000000000000    0.0000000000000006
   0.0000000000000008    4.8270999999999997    0.0000000000000003
   0.0000000000000000    0.0000000000000000    6.7455999999999996
Li Fe P O
1 1 1 4
direct
   0.1545000000000000    0.6854000000000000    0.2875000000000000 Li
   0.1531000000000000    0.6817000000000000    0.7875000000000000 Fe
   0.0952000000000000    0.1858000000000000    0.5363000000000000 P
   0.0572000000000000    0.7526000000000000    0.0079000000000000 O
   0.1124000000000000    0.8400000000000000    0.5544000000000000 O
   0.1541000000000000    0.2916000000000000    0.3328000000000000 O
   0.1657000000000000    0.2945000000000000    0.7170000000000000 O
