DPO-CrystaLLM rank=15 ehull=-0.4044
1.0
  10.0242000000000004    0.0000000000000000    0.0000000000000006
   0.0000000000000008    4.8975000000000000    0.0000000000000003
   0.0000000000000000    0.0000000000000000    6.4474999999999998
Li Fe P O
1 1 1 4
direct
   0.1554000000000000    0.6825000000000000    0.2881000000000000 Li
   0.1565000000000000    0.6812000000000000    0.7879000000000000 Fe
   0.0940000000000000    0.1867000000000000    0.5360000000000000 P
   0.0582000000000000    0.7580000000000000    0.0095000000000000 O
   0.1122000000000000    0.8688000000000000    0.5504000000000000 O
   0.1632000000000000    0.3098000000000000    0.7266000000000000 O
   0.1642000000000000    0.2949000000000000    0.3493000000000000 O
