DPO-CrystaLLM rank=11 ehull=-0.4079
1.0
   9.2378000000000000    0.0000000000000000    0.0000000000000006
   0.0000000000000008    4.7790999999999997    0.0000000000000003
   0.0000000000000000    0.0000000000000000    6.6203000000000003
Li Fe P O
1 1 1 4
direct
   0.1586000000000000    0.6895000000000000    0.2874000000000000 Li
   0.1526000000000000    0.6851000000000000    0.7880000000000000 Fe
   0.0906000000000000    0.1812000000000000    0.5377999999999999 P
   0.0564000000000000    0.7499000000000000    0.0278000000000000 O
   0.1105000000000000    0.8611000000000000    0.5488000000000000 O
   0.1595000000000000    0.2948000000000000    0.3422000000000000 O
   0.1630000000000000    0.2872000000000000    0.7349000000000000 O
