DPO-CrystaLLM rank=14 ehull=-0.4049
1.0
  10.0056999999999992    0.0000000000000000    0.0000000000000006
   0.0000000000000008    5.0317999999999996    0.0000000000000003
   0.0000000000000000    0.0000000000000000    6.6071999999999997
Li Fe P O
1 1 1 4
direct
   0.1539000000000000    0.6657999999999999    0.2599000000000000 Li
   0.1598000000000000    0.6632000000000000    0.7874000000000000 Fe
   0.0942000000000000    0.1722000000000000    0.5306999999999999 P
   0.0518000000000000    0.7492000000000000    0.0144000000000000 O
   0.1105000000000000    0.8514000000000000    0.5323000000000000 O
   0.1542000000000000    0.2990000000000000    0.3374000000000000 O
   0.1608000000000000    0.2925000000000000    0.7138000000000000 O
