DPO-CrystaLLM rank=3 ehull=-0.4272
1.0
  10.0555000000000003    0.0000000000000000    0.0000000000000006
   0.0000000000000008    5.0004000000000000    0.0000000000000003
   0.0000000000000000    0.0000000000000000    6.7537000000000003
Li Fe P O
1 1 1 4
direct
   0.1521000000000000    0.3444000000000000    0.2946000000000000 Li
   0.1597000000000000    0.3427000000000000    0.7895000000000000 Fe
   0.0891000000000000    0.8490000000000000    0.5324000000000000 P
   0.0618000000000000    0.7007000000000000    0.7245000000000000 O
   0.1099000000000000    0.1512000000000000    0.5263000000000000 O
   0.1330000000000000    0.7278000000000000    0.3446000000000000 O
   0.1512000000000000    0.1376000000000000    0.9866000000000000 O
