DPO-CrystaLLM rank=7 ehull=-0.4160
1.0
   9.8950999999999993    0.0000000000000000    0.0000000000000006
   0.0000000000000008    4.6795999999999998    0.0000000000000003
   0.0000000000000000    0.0000000000000000    6.7027000000000001
Li Fe P O
1 1 1 4
direct
   0.1567000000000000    0.6995000000000000    0.2899000000000000 Li
   0.1568000000000000    0.6988000000000000    0.7887999999999999 Fe
   0.0897000000000000    0.1881000000000000    0.5292000000000000 P
   0.0691000000000000    0.7532000000000000    0.0177000000000000 O
   0.1149000000000000    0.8430000000000000    0.5358000000000001 O
   0.1536000000000000    0.2784000000000000    0.3281000000000000 O
   0.1577000000000000    0.3116000000000000    0.7153000000000000 O
