DPO-CrystaLLM rank=8 ehull=-0.4154
1.0
   9.8901000000000003    0.0000000000000000    0.0000000000000006
   0.0000000000000008    4.9244000000000003    0.0000000000000003
   0.0000000000000000    0.0000000000000000    6.6482000000000001
Li Fe P O
1 1 1 4
direct
   0.1551000000000000    0.6977000000000000    0.2849000000000000 Li
   0.1599000000000000    0.6912000000000000    0.7891000000000000 Fe
   0.0937000000000000    0.1884000000000000    0.5377999999999999 P
   0.0533000000000000    0.7514000000000000    0.0171000000000000 O
   0.1074000000000000    0.8590000000000000    0.5460000000000000 O
   0.1303000000000000    0.3114000000000000    0.7366000000000000 O
   0.1532000000000000    0.2997000000000000    0.3449000000000000 O
