DPO-CrystaLLM rank=18 ehull=-0.3966
1.0
   9.5679999999999996    0.0000000000000000    0.0000000000000006
   0.0000000000000008    4.8038999999999996    0.0000000000000003
   0.0000000000000000    0.0000000000000000    6.6299999999999999
Li Fe P O
1 1 1 4
direct
   0.1567000000000000    0.6832000000000000    0.2875000000000000 Li
   0.1597000000000000    0.6836000000000000    0.7873000000000000 Fe
   0.0905000000000000    0.1783000000000000    0.5358000000000001 P
   0.0576000000000000    0.7504000000000000    0.0334000000000000 O
   0.1045000000000000    0.8578000000000000    0.5353000000000000 O
   0.1585000000000000    0.3104000000000000    0.3457000000000000 O
   0.1663000000000000    0.2930000000000000    0.7241000000000000 O
