DPO-CrystaLLM rank=9 ehull=-0.4120
1.0
   9.9235000000000007    0.0000000000000000    0.0000000000000006
   0.0000000000000008    4.9958000000000000    0.0000000000000003
   0.0000000000000000    0.0000000000000000    7.1204999999999998
Li Fe P O
1 1 1 4
direct
   0.1567000000000000    0.1952000000000000    0.2826000000000000 Li
   0.1535000000000000    0.2124000000000000    0.8081000000000000 Fe
   0.0944000000000000    0.6931000000000000    0.5377000000000000 P
   0.0720000000000000    0.2073000000000000    0.0165000000000000 O
   0.1163000000000000    0.3827000000000000    0.5710000000000000 O
   0.1477000000000000    0.7842000000000000    0.3467000000000000 O
   0.1573000000000000    0.8033000000000000    0.7159000000000000 O
