DPO-CrystaLLM rank=1 ehull=-0.8374
1.0
   0.1565000000000000    0.0000000000000000    0.0000000000000000
   0.0000000000000010    6.0129999999999999    0.0000000000000004
   0.0000000000000000    0.0000000000000000    4.7882999999999996
Li Fe P O
1 1 1 3
direct
   0.0000000000000000    0.0000000000000000    0.5000000000000000 Li
   0.2218000000000000    0.7500000000000000    0.9846000000000000 Fe
   0.0980000000000000    0.2500000000000000    0.9127999999999999 P
   0.1623000000000000    0.0460000000000000    0.7828000000000001 O
   0.0451000000000000    0.7500000000000000    0.2143000000000000 O
   0.1039000000000000    0.2500000000000000    0.2375000000000000 O
