DPO-CrystaLLM rank=4 ehull=-0.4230
1.0
  10.5088000000000008    0.0000000000000000    0.0000000000000006
   0.0000000000000010    6.3876999999999997    0.0000000000000004
   0.0000000000000000    0.0000000000000000    4.8902000000000001
Li Fe P O
1 1 1 4
direct
   0.1565000000000000    0.5276999999999999    0.7573000000000000 Li
   0.1658000000000000    0.0332000000000000    0.7598000000000000 Fe
   0.0952000000000000    0.2414000000000000    0.2570000000000000 P
   0.0565000000000000    0.2546000000000000    0.5661000000000000 O
   0.1229000000000000    0.7664000000000000    0.6853000000000000 O
   0.1590000000000000    0.4371000000000000    0.1531000000000000 O
   0.1681000000000000    0.0485000000000000    0.1573000000000000 O
