DPO-CrystaLLM rank=10 ehull=-0.4085
1.0
   9.1500000000000004    0.0000000000000000    0.0000000000000006
   0.0000000000000010    6.3975999999999997    0.0000000000000004
   0.0000000000000000    0.0000000000000000    4.9786999999999999
Li Fe P O
1 1 1 4
direct
   0.0878000000000000    0.2535000000000000    0.7587000000000000 Li
   0.1623000000000000    0.4884000000000000    0.2583000000000000 Fe
   0.1781000000000000    0.7534000000000000    0.7600000000000000 P
   0.0970000000000000    0.2636000000000000    0.1620000000000000 O
   0.1128000000000000    0.9614000000000000    0.6508000000000000 O
   0.1556000000000000    0.5453000000000000    0.6388000000000000 O
   0.1869000000000000    0.7337000000000000    0.0745000000000000 O
