DPO-CrystaLLM rank=6 ehull=-0.4193
1.0
  10.4361999999999995    0.0000000000000000    0.0000000000000006
   0.0000000000000010    6.4165000000000001    0.0000000000000004
   0.0000000000000000    0.0000000000000000    4.7478999999999996
Li Fe P O
1 1 1 4
direct
   0.0748000000000000    0.2520000000000000    0.7554000000000000 Li
   0.1569000000000000    0.0195000000000000    0.2501000000000000 Fe
   0.0995000000000000    0.7483000000000000    0.7560000000000000 P
   0.0629000000000000    0.2395000000000000    0.1941000000000000 O
   0.1171000000000000    0.7606000000000001    0.0879000000000000 O
   0.1519000000000000    0.5350000000000000    0.6624000000000000 O
   0.1575000000000000    0.9661000000000000    0.6659000000000000 O
