DPO-CrystaLLM rank=2 ehull=-0.4305
1.0
  10.0695999999999994    0.0000000000000000    0.0000000000000006
   0.0000000000000008    5.0171999999999999    0.0000000000000003
   0.0000000000000000    0.0000000000000000    6.7234999999999996
Li Fe P O
1 1 1 4
direct
   0.1518000000000000    0.3340000000000000    0.2874000000000000 Li
   0.1559000000000000    0.3359000000000000    0.7845000000000000 Fe
   0.0913000000000000    0.8421000000000000    0.5360000000000000 P
   0.0550000000000000    0.7005000000000000    0.7171999999999999 O
   0.1168000000000000    0.1459000000000000    0.5310000000000000 O
   0.1544000000000000    0.7123000000000000    0.3676000000000000 O
   0.1584000000000000    0.1585000000000000    0.9918000000000000 O
