DPO-CrystaLLM rank=19 ehull=-0.3945
1.0
   9.5021000000000004    0.0000000000000000    0.0000000000000006
   0.0000000000000011    6.8360000000000003    0.0000000000000004
   0.0000000000000000    0.0000000000000000    4.9843000000000002
Li Fe P O
1 1 1 4
direct
   0.1578000000000000    0.9922000000000000    0.7543000000000000 Li
   0.1593000000000000    0.5031000000000000    0.7524999999999999 Fe
   0.0907000000000000    0.2611000000000000    0.2558000000000000 P
   0.0680000000000000    0.7357000000000000    0.7445000000000001 O
   0.1189000000000000    0.0587000000000000    0.1669000000000000 O
   0.1597000000000000    0.2809000000000000    0.5617000000000000 O
   0.1598000000000000    0.4436000000000000    0.1369000000000000 O
