DPO-CrystaLLM rank=16 ehull=-0.4024
1.0
  10.1433999999999997    0.0000000000000000    0.0000000000000006
   0.0000000000000010    6.4778000000000002    0.0000000000000004
   0.0000000000000000    0.0000000000000000    4.7638999999999996
Li Fe P O
1 1 1 4
direct
   0.0837000000000000    0.2439000000000000    0.7528000000000000 Li
   0.1545000000000000    0.9951000000000000    0.2552000000000000 Fe
   0.0964000000000000    0.7412000000000000    0.7568000000000000 P
   0.0704000000000000    0.2330000000000000    0.1657000000000000 O
   0.1129000000000000    0.7685000000000000    0.0868000000000000 O
   0.1576000000000000    0.5450000000000000    0.6555000000000000 O
   0.1581000000000000    0.9574000000000000    0.6631000000000000 O
