DPO-CrystaLLM rank=17 ehull=-0.3981
1.0
   9.1363000000000003    0.0000000000000000    0.0000000000000006
   0.0000000000000008    4.7595999999999998    0.0000000000000003
   0.0000000000000000    0.0000000000000000    6.6055000000000001
Li Fe P O
1 1 1 4
direct
   0.1567000000000000    0.6771000000000000    0.2872000000000000 Li
   0.1469000000000000    0.6702000000000000    0.7877000000000000 Fe
   0.0935000000000000    0.1768000000000000    0.5355000000000000 P
   0.0544000000000000    0.7521000000000000    0.0290000000000000 O
   0.1158000000000000    0.8587000000000000    0.5336000000000000 O
   0.1545000000000000    0.3093000000000000    0.3343000000000000 O
   0.1741000000000000    0.2736000000000000    0.7243000000000001 O
