DPO-CrystaLLM rank=12 ehull=-0.4060
1.0
   9.0509000000000004    0.0000000000000000    0.0000000000000006
   0.0000000000000010    6.2674000000000003    0.0000000000000004
   0.0000000000000000    0.0000000000000000    4.8817000000000004
Li Fe P O
1 1 1 4
direct
   0.1510000000000000    0.2364000000000000    0.7583000000000000 Li
   0.1662000000000000    0.4984000000000000    0.2584000000000000 Fe
   0.0941000000000000    0.7448000000000000    0.7583000000000000 P
   0.0733000000000000    0.2586000000000000    0.1564000000000000 O
   0.0950000000000000    0.7412000000000000    0.0756000000000000 O
   0.1546000000000000    0.9637000000000000    0.6593000000000000 O
   0.1550000000000000    0.5322000000000000    0.6578000000000001 O
