DPO-CrystaLLM rank=13 ehull=-0.4053
1.0
  10.7104999999999997    0.0000000000000000    0.0000000000000007
   0.0000000000000010    6.3346999999999998    0.0000000000000004
   0.0000000000000000    0.0000000000000000    4.8990999999999998
Li Fe P O
1 1 1 4
direct
   0.0878000000000000    0.2556000000000000    0.7530000000000000 Li
   0.1534000000000000    0.9958000000000000    0.2532000000000000 Fe
   0.0970000000000000    0.7419000000000000    0.7652000000000000 P
   0.0569000000000000    0.2319000000000000    0.1670000000000000 O
   0.1014000000000000    0.7585000000000000    0.0663000000000000 O
   0.1568000000000000    0.5481000000000000    0.6284999999999999 O
   0.1583000000000000    0.9457000000000000    0.6535000000000000 O
